4251
1726
3024
1660
1118
3110
1352
1475
179
2761
2027
4276
4079
2259
4031
3171
703
2170
1081
4075
2320
180
3164
1978
3544
3971
1323
1394
2872
4172
312
1569
3511
2714
2464
4222
1268
1368
943
3708
3557
2314
1039
2107
2922
2947
1339
241
3643
925
2636
3511
2812
399
1749
1614
3677
1939
3064
3636
3010
2335
2045
4077
1678
3272
1059
3411
1029
2344
3325
1077
3478
1346
821
3054
1297
2556
2010
715
895
1726
2391
709
3118
360
4054
4014
386
227
2918
3429
747
3276
1395
4009
357
3477
3286
1989
